/* Objective function */
min: +1e-007 C1 +1e-007 C2 +1e-007 C3 +1e-007 C4 +1e-007 C5 +1e-007 C6 +1e-007 C7 +1e-007 C8 +1e-007 C9 +1e-007 C10
 +1e-007 C11 +1e-007 C12 +1e-007 C13 +1e-007 C14 +1e-007 C15 +1e-007 C16 +1e-007 C17 +1e-007 C18 +1e-007 C19
 +1e-007 C20 +1e-007 C21 +1e-007 C22 +1e-007 C23 +1e-007 C24 +1e-007 C25 +1e-007 C26 +1e-007 C27 +1e-007 C28
 +1e-007 C29 +1e-007 C30 +1e-007 C31 +1e-007 C32 +1e-007 C33 +1e-007 C34 +1e-007 C35 +1e-007 C36 +1e-007 C37
 +1e-007 C38 +1e-007 C39 +1e-007 C40 +1e-007 C41 +1e-007 C42 +1e-007 C43 +1e-007 C44 +1e-007 C45 +1e-007 C46
 +1e-007 C47 +1e-007 C48 +1e-007 C49 +1e-007 C50 +1e-007 C51 +1e-007 C52 +1e-007 C53 +1e-007 C54 +1e-007 C55
 +1e-007 C56 +1e-007 C57 +1e-007 C58 +1e-007 C59 +1e-007 C60 +1e-007 C61 +1e-007 C62 +1e-007 C63 +1e-007 C64
 +1e-007 C65 +1e-007 C66 +1e-007 C67 +1e-007 C68 +1e-007 C69 +1e-007 C70 +1e-007 C71 +1e-007 C72 +1e-007 C73
 +1e-007 C74 +1e-007 C75 +1e-007 C76 +1e-007 C77 +1e-007 C78 +1e-007 C79 +1e-007 C80 +1e-007 C81 +1e-007 C82
 +1e-007 C83 +1e-007 C84 +1e-007 C85 +1e-007 C86 +1e-007 C87 +1e-007 C88 +1e-007 C89 +1e-007 C90 +1e-007 C91
 +1e-007 C92 +1e-007 C93 +1e-007 C94 +1e-007 C95 +1e-007 C96 +1e-007 C97 +1e-007 C98 +1e-007 C99 +1e-007 C100
 +1e-007 C101 +1e-007 C102 +1e-007 C103 +1e-007 C104 +1e-007 C105 +1e-007 C106 +1e-007 C107 +1e-007 C108
 +1e-007 C109 +1e-007 C110 +1e-007 C111 +1e-007 C112 +1e-007 C113 +1e-007 C114 +1e-007 C115 +1e-007 C116
 +1e-007 C117 +1e-007 C118 +1e-007 C119 +1e-007 C120 +1e-007 C121 +1e-007 C122 +1e-007 C123 +1e-007 C124
 +1e-007 C125 +1e-007 C126 +1e-007 C127 +1e-007 C128 +1e-007 C129 +1e-007 C130 +1e-007 C131 +1e-007 C132
 +1e-007 C133 +1e-007 C134 +1e-007 C135 +1e-007 C136 +1e-007 C137 +1e-007 C138 +1e-007 C139 +1e-007 C140
 +1e-007 C141 +1e-007 C142 +1e-007 C143 +1e-007 C144 +1e-007 C145 +1e-007 C146 +1e-007 C147 +1e-007 C148
 +1e-007 C149 +1e-007 C150 +1e-007 C151 +1e-007 C152 +1e-007 C153 +1e-007 C154 +1e-007 C155 +1e-007 C156
 +1e-007 C157 +1e-007 C158 +1e-007 C159 +1e-007 C160 +1e-007 C161 +1e-007 C162 +1e-007 C163 +1e-007 C164
 +1e-007 C165 +1e-007 C166 +1e-007 C167 +1e-007 C168 +1e-007 C169 +1e-007 C170 +1e-007 C171 +1e-007 C172
 +1e-007 C173 +1e-007 C174 +1e-007 C175 +1e-007 C176 +1e-007 C177 +1e-007 C178 +1e-007 C179 +1e-007 C180
 +1e-007 C181 +1e-007 C182 +1e-007 C183 +1e-007 C184 +1e-007 C185 +1e-007 C186 +1e-007 C187 +1e-007 C188
 +1e-007 C189 +1e-007 C190 +1e-007 C191 +1e-007 C192 +1e-007 C193 +1e-007 C194 +1e-007 C195 +1e-007 C196
 +1e-007 C197 +1e-007 C198 +1e-007 C199 +1e-007 C200 +1e-007 C201 +1e-007 C202 +1e-007 C203 +1e-007 C204
 +1e-007 C205 +1e-007 C206 +1e-007 C207 +1e-007 C208 +1e-007 C209 +1e-007 C210 +1e-007 C211 +1e-007 C212
 +1e-007 C213 +1e-007 C214 +1e-007 C215 +1e-007 C216 +1e-007 C217 +1e-007 C218 +1e-007 C219 +1e-007 C220
 +1e-007 C221 +1e-007 C222 +1e-007 C223 +1e-007 C224 +1e-007 C225 +1e-007 C226 +1e-007 C227 +1e-007 C228
 +1e-007 C229 +1e-007 C230 +1e-007 C231 +1e-007 C232 +1e-007 C233 +1e-007 C234 +1e-007 C235 +1e-007 C236
 +1e-007 C237 +1e-007 C238 +1e-007 C239 +1e-007 C240 +1e-007 C241 +1e-007 C242 +1e-007 C243 +1e-007 C244
 +1e-007 C245 +1e-007 C246 +1e-007 C247 +1e-007 C248 +1e-007 C249 +1e-007 C250 +1e-007 C251 +1e-007 C252
 +1e-007 C253 +1e-007 C254 +1e-007 C255 +1e-007 C256 +1e-007 C257 +1e-007 C258 +1e-007 C259 +1e-007 C260
 +1e-007 C261 +1e-007 C262 +1e-007 C263 +1e-007 C264 +1e-007 C265 +1e-007 C266 +1e-007 C267 +1e-007 C268
 +1e-007 C269 +1e-007 C270 +1e-007 C271 +1e-007 C272 +1e-007 C273 +1e-007 C274 +1e-007 C275 +1e-007 C276
 +1e-007 C277 +1e-007 C278 +1e-007 C279 +1e-007 C280 +1e-007 C281 +1e-007 C282 +1e-007 C283 +1e-007 C284
 +1e-007 C285 +1e-007 C286 +1e-007 C287 +1e-007 C288 +1e-007 C289 +1e-007 C290 +1e-007 C291 +1e-007 C292
 +1e-007 C293 +1e-007 C294 +1e-007 C295 +1e-007 C296 +1e-007 C297 +1e-007 C298 +1e-007 C299 +1e-007 C300
 +1e-007 C301 +1e-007 C302 +1e-007 C303 +1e-007 C304 +1e-007 C305 +1e-007 C306 +1e-007 C307 +1e-007 C308
 +1e-007 C309 +1e-007 C310 +1e-007 C311 +1e-007 C312 +1e-007 C313 +1e-007 C314 +1e-007 C315 +1e-007 C316
 +1e-007 C317 +1e-007 C318 +1e-007 C319 +1e-007 C320 +1e-007 C321 +1e-007 C322 +1e-007 C323 +1e-007 C324
 +1e-007 C325 +1e-007 C326 +1e-007 C327 +1e-007 C328 +1e-007 C329 +1e-007 C330 +1e-007 C331 +1e-007 C332
 +1e-007 C333 +1e-007 C334 +1e-007 C335 +1e-007 C336 +1e-007 C337 +1e-007 C338 +1e-007 C339 +1e-007 C340
 +1e-007 C341 +1e-007 C342 +1e-007 C343 +1e-007 C344 +1e-007 C345 +1e-007 C346 +1e-007 C347 +1e-007 C348
 +1e-007 C349 +1e-007 C350 +1e-007 C351 +1e-007 C352 +1e-007 C353 +1e-007 C354 +1e-007 C355 +1e-007 C356
 +1e-007 C357 +1e-007 C358 +1e-007 C359 +1e-007 C360 +1e-007 C361 +1e-007 C362 +1e-007 C363 +1e-007 C364
 +1e-007 C365 +1e-007 C366 +1e-007 C367 +1e-007 C368 +1e-007 C369 +1e-007 C370 +1e-007 C371 +1e-007 C372
 +1e-007 C373 +1e-007 C374 +1e-007 C375 +1e-007 C376 +1e-007 C377 +1e-007 C378 +1e-007 C379 +1e-007 C380
 +1e-007 C381 +1e-007 C382 +1e-007 C383 +1e-007 C384 +1e-007 C385 +1e-007 C386 +1e-007 C387 +1e-007 C388
 +1e-007 C389 +1e-007 C390 +1e-007 C391 +1e-007 C392 +1e-007 C393 +1e-007 C394 +1e-007 C395 +1e-007 C396
 +1e-007 C397 +1e-007 C398 +1e-007 C399 +1e-007 C400 +1e-007 C401 +1e-007 C402 +1e-007 C403 +1e-007 C404
 +1e-007 C405 +1e-007 C406 +1e-007 C407 +1e-007 C408 +1e-007 C409 +1e-007 C410 +1e-007 C411 +1e-007 C412
 +1e-007 C413 +1e-007 C414 +1e-007 C415 +1e-007 C416 +1e-007 C417 +1e-007 C418 +1e-007 C419 +1e-007 C420
 +1e-007 C421 +1e-007 C422 +1e-007 C423 +1e-007 C424 +1e-007 C425 +1e-007 C426 +1e-007 C427 +1e-007 C428
 +1e-007 C429 +1e-007 C430 +1e-007 C431 +1e-007 C432 +1e-007 C433 +1e-007 C434 +1e-007 C435 +1e-007 C436
 +1e-007 C437 +1e-007 C438 +1e-007 C439 +1e-007 C440 +1e-007 C441 +1e-007 C442 +1e-007 C443 +1e-007 C444
 +1e-007 C445 +1e-007 C446 +1e-007 C447 +1e-007 C448 +1e-007 C449 +1e-007 C450 +C451 +C452 +C453 +C454
 +C455 +C456 +C457 +C458 +C459 +C460 +C461 +C462 +C463 +C464 +C465 +46000 C466 +54000 C467 +30000 C468
 +30000 C469 +30000 C470 +30000 C471 +54000 C472 +30000 C473 +30000 C474 +30000 C475 +62000 C476 +30000 C477
 +34000 C478 +58000 C479 +42000 C480;

/* Constraints */
+C1 +C2 = 1;
+C1 +C12 +C17 = 1;
-C2 +C12 +C14 -C23 = 0;
+C17 +C19 +C20 -C24 -C29 = 0;
-C14 -C19 +C23 +C24 +C25 -C30 = 0;
-C20 -C25 +C29 +C30 = 0;
+C31 +C32 = 1;
-C31 +C37 +C38 -C47 = 0;
+C32 +C37 +C53 = 1;
-C38 +C47 +C49 +C50 -C54 -C59 = 0;
-C49 +C53 +C54 +C55 -C60 = 0;
-C50 -C55 +C59 +C60 = 0;
+C61 +C62 = 1;
-C61 +C67 +C68 -C72 = 0;
-C62 -C67 +C72 +C74 -C83 = 0;
+C68 +C84 +C89 = 1;
-C74 +C83 +C84 +C85 -C90 = 0;
-C85 +C89 +C90 = 0;
+C91 +C92 = 1;
-C91 +C97 +C98 -C102 -C107 = 0;
-C92 -C97 +C102 +C104 = 0;
-C98 +C107 +C109 +C110 -C119 = 0;
+C104 +C109 +C120 = 1;
-C110 +C119 +C120 = 0;
+C121 +C122 = 1;
-C121 +C127 +C128 -C132 -C137 = 0;
-C122 -C127 +C132 +C134 -C143 = 0;
-C128 +C137 +C139 +C140 -C144 = 0;
-C134 -C139 +C143 +C144 +C145 = 0;
+C140 +C145 = 1;
+C152 -C156 = 0;
+C156 +C157 +C158 = 1;
+C152 +C157 +C173 = 1;
-C158 +C169 +C170 -C174 -C179 = 0;
-C169 +C173 +C174 +C175 -C180 = 0;
-C170 -C175 +C179 +C180 = 0;
+C182 -C186 -C191 = 0;
+C186 +C187 +C188 = 1;
-C182 -C187 +C191 +C194 -C203 = 0;
+C188 +C204 +C209 = 1;
-C194 +C203 +C204 +C205 -C210 = 0;
-C205 +C209 +C210 = 0;
+C212 -C216 -C221 = 0;
+C216 +C217 +C218 = 1;
-C212 -C217 +C221 +C224 = 0;
-C218 +C229 +C230 -C239 = 0;
+C224 +C229 +C240 = 1;
-C230 +C239 +C240 = 0;
+C242 -C246 -C251 = 0;
+C246 +C247 +C248 = 1;
-C242 -C247 +C251 +C254 -C263 = 0;
-C248 +C259 +C260 -C264 = 0;
-C254 -C259 +C263 +C264 +C265 = 0;
+C260 +C265 = 1;
+C271 -C276 -C281 = 0;
-C271 +C276 +C278 -C282 = 0;
+C281 +C282 +C284 = 1;
+C278 +C294 +C299 = 1;
-C284 +C294 +C295 -C300 = 0;
-C295 +C299 +C300 = 0;
+C301 -C306 -C311 = 0;
-C301 +C306 +C308 -C312 -C317 = 0;
+C311 +C312 +C314 = 1;
-C308 +C317 +C319 +C320 -C329 = 0;
+C314 +C319 +C330 = 1;
-C320 +C329 +C330 = 0;
+C331 -C336 -C341 = 0;
-C331 +C336 +C338 -C342 -C347 = 0;
+C341 +C342 +C344 = 1;
-C338 +C347 +C349 +C350 -C354 = 0;
-C344 -C349 +C354 +C355 = 0;
+C350 +C355 = 1;
+C361 +C362 -C366 -C371 = 0;
-C361 +C366 +C367 -C372 -C377 = 0;
-C362 -C367 +C371 +C372 +C374 = 0;
+C377 +C379 +C380 = 1;
+C374 +C379 +C390 = 1;
-C380 +C390 = 0;
+C391 +C392 -C396 -C401 = 0;
-C391 +C396 +C397 -C402 -C407 = 0;
-C392 -C397 +C401 +C402 +C404 -C413 = 0;
+C407 +C409 +C410 = 1;
-C404 -C409 +C413 +C415 = 0;
+C410 +C415 = 1;
+C421 +C422 -C426 -C431 = 0;
-C421 +C426 +C427 +C428 -C432 -C437 = 0;
-C422 -C427 +C431 +C432 -C443 = 0;
-C428 +C437 +C440 -C444 = 0;
+C443 +C444 +C445 = 1;
+C440 +C445 = 1;
+21.25 C1 +21.25 C6 +21.25 C31 +21.25 C36 +18.75 C61 +18.75 C66 +1.25 C91 +1.25 C96 +16.25 C121 +16.25 C126
 +40 C151 +40 C156 +8.75 C181 +8.75 C186 +18.75 C211 +18.75 C216 +142.5 C241 +142.5 C246 +13.75 C271
 +13.75 C276 +57.5 C301 +57.5 C306 +1.25 C331 +1.25 C336 +13.75 C361 +13.75 C366 +8.75 C391 +8.75 C396
 +116.25 C421 +116.25 C426 -100 C451 <= 0;
+21.25 C2 +21.25 C11 +21.25 C32 +21.25 C41 +18.75 C62 +18.75 C71 +1.25 C92 +1.25 C101 +16.25 C122 +16.25 C131
 +40 C152 +40 C161 +8.75 C182 +8.75 C191 +18.75 C212 +18.75 C221 +142.5 C242 +142.5 C251 +13.75 C272
 +13.75 C281 +57.5 C302 +57.5 C311 +1.25 C332 +1.25 C341 +13.75 C362 +13.75 C371 +8.75 C392 +8.75 C401
 +116.25 C422 +116.25 C431 -100 C452 <= 0;
+21.25 C3 +21.25 C16 +21.25 C33 +21.25 C46 +18.75 C63 +18.75 C76 +1.25 C93 +1.25 C106 +16.25 C123 +16.25 C136
 +40 C153 +40 C166 +8.75 C183 +8.75 C196 +18.75 C213 +18.75 C226 +142.5 C243 +142.5 C256 +13.75 C273
 +13.75 C286 +57.5 C303 +57.5 C316 +1.25 C333 +1.25 C346 +13.75 C363 +13.75 C376 +8.75 C393 +8.75 C406
 +116.25 C423 +116.25 C436 <= 0;
+21.25 C4 +21.25 C21 +21.25 C34 +21.25 C51 +18.75 C64 +18.75 C81 +1.25 C94 +1.25 C111 +16.25 C124 +16.25 C141
 +40 C154 +40 C171 +8.75 C184 +8.75 C201 +18.75 C214 +18.75 C231 +142.5 C244 +142.5 C261 +13.75 C274
 +13.75 C291 +57.5 C304 +57.5 C321 +1.25 C334 +1.25 C351 +13.75 C364 +13.75 C381 +8.75 C394 +8.75 C411
 +116.25 C424 +116.25 C441 <= 0;
+21.25 C5 +21.25 C26 +21.25 C35 +21.25 C56 +18.75 C65 +18.75 C86 +1.25 C95 +1.25 C116 +16.25 C125 +16.25 C146
 +40 C155 +40 C176 +8.75 C185 +8.75 C206 +18.75 C215 +18.75 C236 +142.5 C245 +142.5 C266 +13.75 C275
 +13.75 C296 +57.5 C305 +57.5 C326 +1.25 C335 +1.25 C356 +13.75 C365 +13.75 C386 +8.75 C395 +8.75 C416
 +116.25 C425 +116.25 C446 <= 0;
+21.25 C7 +21.25 C12 +21.25 C37 +21.25 C42 +18.75 C67 +18.75 C72 +1.25 C97 +1.25 C102 +16.25 C127 +16.25 C132
 +40 C157 +40 C162 +8.75 C187 +8.75 C192 +18.75 C217 +18.75 C222 +142.5 C247 +142.5 C252 +13.75 C277
 +13.75 C282 +57.5 C307 +57.5 C312 +1.25 C337 +1.25 C342 +13.75 C367 +13.75 C372 +8.75 C397 +8.75 C402
 +116.25 C427 +116.25 C432 -100 C456 <= 0;
+21.25 C8 +21.25 C17 +21.25 C38 +21.25 C47 +18.75 C68 +18.75 C77 +1.25 C98 +1.25 C107 +16.25 C128 +16.25 C137
 +40 C158 +40 C167 +8.75 C188 +8.75 C197 +18.75 C218 +18.75 C227 +142.5 C248 +142.5 C257 +13.75 C278
 +13.75 C287 +57.5 C308 +57.5 C317 +1.25 C338 +1.25 C347 +13.75 C368 +13.75 C377 +8.75 C398 +8.75 C407
 +116.25 C428 +116.25 C437 -100 C457 <= 0;
+21.25 C9 +21.25 C22 +21.25 C39 +21.25 C52 +18.75 C69 +18.75 C82 +1.25 C99 +1.25 C112 +16.25 C129 +16.25 C142
 +40 C159 +40 C172 +8.75 C189 +8.75 C202 +18.75 C219 +18.75 C232 +142.5 C249 +142.5 C262 +13.75 C279
 +13.75 C292 +57.5 C309 +57.5 C322 +1.25 C339 +1.25 C352 +13.75 C369 +13.75 C382 +8.75 C399 +8.75 C412
 +116.25 C429 +116.25 C442 <= 0;
+21.25 C10 +21.25 C27 +21.25 C40 +21.25 C57 +18.75 C70 +18.75 C87 +1.25 C100 +1.25 C117 +16.25 C130 +16.25 C147
 +40 C160 +40 C177 +8.75 C190 +8.75 C207 +18.75 C220 +18.75 C237 +142.5 C250 +142.5 C267 +13.75 C280
 +13.75 C297 +57.5 C310 +57.5 C327 +1.25 C340 +1.25 C357 +13.75 C370 +13.75 C387 +8.75 C400 +8.75 C417
 +116.25 C430 +116.25 C447 <= 0;
+21.25 C13 +21.25 C18 +21.25 C43 +21.25 C48 +18.75 C73 +18.75 C78 +1.25 C103 +1.25 C108 +16.25 C133 +16.25 C138
 +40 C163 +40 C168 +8.75 C193 +8.75 C198 +18.75 C223 +18.75 C228 +142.5 C253 +142.5 C258 +13.75 C283
 +13.75 C288 +57.5 C313 +57.5 C318 +1.25 C343 +1.25 C348 +13.75 C373 +13.75 C378 +8.75 C403 +8.75 C408
 +116.25 C433 +116.25 C438 <= 0;
+21.25 C14 +21.25 C23 +21.25 C44 +21.25 C53 +18.75 C74 +18.75 C83 +1.25 C104 +1.25 C113 +16.25 C134 +16.25 C143
 +40 C164 +40 C173 +8.75 C194 +8.75 C203 +18.75 C224 +18.75 C233 +142.5 C254 +142.5 C263 +13.75 C284
 +13.75 C293 +57.5 C314 +57.5 C323 +1.25 C344 +1.25 C353 +13.75 C374 +13.75 C383 +8.75 C404 +8.75 C413
 +116.25 C434 +116.25 C443 -100 C461 <= 0;
+21.25 C15 +21.25 C28 +21.25 C45 +21.25 C58 +18.75 C75 +18.75 C88 +1.25 C105 +1.25 C118 +16.25 C135 +16.25 C148
 +40 C165 +40 C178 +8.75 C195 +8.75 C208 +18.75 C225 +18.75 C238 +142.5 C255 +142.5 C268 +13.75 C285
 +13.75 C298 +57.5 C315 +57.5 C328 +1.25 C345 +1.25 C358 +13.75 C375 +13.75 C388 +8.75 C405 +8.75 C418
 +116.25 C435 +116.25 C448 <= 0;
+21.25 C19 +21.25 C24 +21.25 C49 +21.25 C54 +18.75 C79 +18.75 C84 +1.25 C109 +1.25 C114 +16.25 C139 +16.25 C144
 +40 C169 +40 C174 +8.75 C199 +8.75 C204 +18.75 C229 +18.75 C234 +142.5 C259 +142.5 C264 +13.75 C289
 +13.75 C294 +57.5 C319 +57.5 C324 +1.25 C349 +1.25 C354 +13.75 C379 +13.75 C384 +8.75 C409 +8.75 C414
 +116.25 C439 +116.25 C444 -100 C463 <= 0;
+21.25 C20 +21.25 C29 +21.25 C50 +21.25 C59 +18.75 C80 +18.75 C89 +1.25 C110 +1.25 C119 +16.25 C140 +16.25 C149
 +40 C170 +40 C179 +8.75 C200 +8.75 C209 +18.75 C230 +18.75 C239 +142.5 C260 +142.5 C269 +13.75 C290
 +13.75 C299 +57.5 C320 +57.5 C329 +1.25 C350 +1.25 C359 +13.75 C380 +13.75 C389 +8.75 C410 +8.75 C419
 +116.25 C440 +116.25 C449 -100 C464 <= 0;
+21.25 C25 +21.25 C30 +21.25 C55 +21.25 C60 +18.75 C85 +18.75 C90 +1.25 C115 +1.25 C120 +16.25 C145 +16.25 C150
 +40 C175 +40 C180 +8.75 C205 +8.75 C210 +18.75 C235 +18.75 C240 +142.5 C265 +142.5 C270 +13.75 C295
 +13.75 C300 +57.5 C325 +57.5 C330 +1.25 C355 +1.25 C360 +13.75 C385 +13.75 C390 +8.75 C415 +8.75 C420
 +116.25 C445 +116.25 C450 -100 C465 <= 0;
+C451 +C466 <= 100;
+C452 +C467 <= 100;
+C453 +C468 <= 100;
+C454 +C469 <= 100;
+C455 +C470 <= 100;
+C456 +C471 <= 100;
+C457 +C472 <= 100;
+C458 +C473 <= 100;
+C459 +C474 <= 100;
+C460 +C475 <= 100;
+C461 +C476 <= 100;
+C462 +C477 <= 100;
+C463 +C478 <= 100;
+C464 +C479 <= 100;
+C465 +C480 <= 100;

/* Variable bounds */
C1 <= 1;
C2 <= 1;
C3 <= 1;
C4 <= 1;
C5 <= 1;
C6 <= 1;
C7 <= 1;
C8 <= 1;
C9 <= 1;
C10 <= 1;
C11 <= 1;
C12 <= 1;
C13 <= 1;
C14 <= 1;
C15 <= 1;
C16 <= 1;
C17 <= 1;
C18 <= 1;
C19 <= 1;
C20 <= 1;
C21 <= 1;
C22 <= 1;
C23 <= 1;
C24 <= 1;
C25 <= 1;
C26 <= 1;
C27 <= 1;
C28 <= 1;
C29 <= 1;
C30 <= 1;
C31 <= 1;
C32 <= 1;
C33 <= 1;
C34 <= 1;
C35 <= 1;
C36 <= 1;
C37 <= 1;
C38 <= 1;
C39 <= 1;
C40 <= 1;
C41 <= 1;
C42 <= 1;
C43 <= 1;
C44 <= 1;
C45 <= 1;
C46 <= 1;
C47 <= 1;
C48 <= 1;
C49 <= 1;
C50 <= 1;
C51 <= 1;
C52 <= 1;
C53 <= 1;
C54 <= 1;
C55 <= 1;
C56 <= 1;
C57 <= 1;
C58 <= 1;
C59 <= 1;
C60 <= 1;
C61 <= 1;
C62 <= 1;
C63 <= 1;
C64 <= 1;
C65 <= 1;
C66 <= 1;
C67 <= 1;
C68 <= 1;
C69 <= 1;
C70 <= 1;
C71 <= 1;
C72 <= 1;
C73 <= 1;
C74 <= 1;
C75 <= 1;
C76 <= 1;
C77 <= 1;
C78 <= 1;
C79 <= 1;
C80 <= 1;
C81 <= 1;
C82 <= 1;
C83 <= 1;
C84 <= 1;
C85 <= 1;
C86 <= 1;
C87 <= 1;
C88 <= 1;
C89 <= 1;
C90 <= 1;
C91 <= 1;
C92 <= 1;
C93 <= 1;
C94 <= 1;
C95 <= 1;
C96 <= 1;
C97 <= 1;
C98 <= 1;
C99 <= 1;
C100 <= 1;
C101 <= 1;
C102 <= 1;
C103 <= 1;
C104 <= 1;
C105 <= 1;
C106 <= 1;
C107 <= 1;
C108 <= 1;
C109 <= 1;
C110 <= 1;
C111 <= 1;
C112 <= 1;
C113 <= 1;
C114 <= 1;
C115 <= 1;
C116 <= 1;
C117 <= 1;
C118 <= 1;
C119 <= 1;
C120 <= 1;
C121 <= 1;
C122 <= 1;
C123 <= 1;
C124 <= 1;
C125 <= 1;
C126 <= 1;
C127 <= 1;
C128 <= 1;
C129 <= 1;
C130 <= 1;
C131 <= 1;
C132 <= 1;
C133 <= 1;
C134 <= 1;
C135 <= 1;
C136 <= 1;
C137 <= 1;
C138 <= 1;
C139 <= 1;
C140 <= 1;
C141 <= 1;
C142 <= 1;
C143 <= 1;
C144 <= 1;
C145 <= 1;
C146 <= 1;
C147 <= 1;
C148 <= 1;
C149 <= 1;
C150 <= 1;
C151 <= 1;
C152 <= 1;
C153 <= 1;
C154 <= 1;
C155 <= 1;
C156 <= 1;
C157 <= 1;
C158 <= 1;
C159 <= 1;
C160 <= 1;
C161 <= 1;
C162 <= 1;
C163 <= 1;
C164 <= 1;
C165 <= 1;
C166 <= 1;
C167 <= 1;
C168 <= 1;
C169 <= 1;
C170 <= 1;
C171 <= 1;
C172 <= 1;
C173 <= 1;
C174 <= 1;
C175 <= 1;
C176 <= 1;
C177 <= 1;
C178 <= 1;
C179 <= 1;
C180 <= 1;
C181 <= 1;
C182 <= 1;
C183 <= 1;
C184 <= 1;
C185 <= 1;
C186 <= 1;
C187 <= 1;
C188 <= 1;
C189 <= 1;
C190 <= 1;
C191 <= 1;
C192 <= 1;
C193 <= 1;
C194 <= 1;
C195 <= 1;
C196 <= 1;
C197 <= 1;
C198 <= 1;
C199 <= 1;
C200 <= 1;
C201 <= 1;
C202 <= 1;
C203 <= 1;
C204 <= 1;
C205 <= 1;
C206 <= 1;
C207 <= 1;
C208 <= 1;
C209 <= 1;
C210 <= 1;
C211 <= 1;
C212 <= 1;
C213 <= 1;
C214 <= 1;
C215 <= 1;
C216 <= 1;
C217 <= 1;
C218 <= 1;
C219 <= 1;
C220 <= 1;
C221 <= 1;
C222 <= 1;
C223 <= 1;
C224 <= 1;
C225 <= 1;
C226 <= 1;
C227 <= 1;
C228 <= 1;
C229 <= 1;
C230 <= 1;
C231 <= 1;
C232 <= 1;
C233 <= 1;
C234 <= 1;
C235 <= 1;
C236 <= 1;
C237 <= 1;
C238 <= 1;
C239 <= 1;
C240 <= 1;
C241 <= 1;
C242 <= 1;
C243 <= 1;
C244 <= 1;
C245 <= 1;
C246 <= 1;
C247 <= 1;
C248 <= 1;
C249 <= 1;
C250 <= 1;
C251 <= 1;
C252 <= 1;
C253 <= 1;
C254 <= 1;
C255 <= 1;
C256 <= 1;
C257 <= 1;
C258 <= 1;
C259 <= 1;
C260 <= 1;
C261 <= 1;
C262 <= 1;
C263 <= 1;
C264 <= 1;
C265 <= 1;
C266 <= 1;
C267 <= 1;
C268 <= 1;
C269 <= 1;
C270 <= 1;
C271 <= 1;
C272 <= 1;
C273 <= 1;
C274 <= 1;
C275 <= 1;
C276 <= 1;
C277 <= 1;
C278 <= 1;
C279 <= 1;
C280 <= 1;
C281 <= 1;
C282 <= 1;
C283 <= 1;
C284 <= 1;
C285 <= 1;
C286 <= 1;
C287 <= 1;
C288 <= 1;
C289 <= 1;
C290 <= 1;
C291 <= 1;
C292 <= 1;
C293 <= 1;
C294 <= 1;
C295 <= 1;
C296 <= 1;
C297 <= 1;
C298 <= 1;
C299 <= 1;
C300 <= 1;
C301 <= 1;
C302 <= 1;
C303 <= 1;
C304 <= 1;
C305 <= 1;
C306 <= 1;
C307 <= 1;
C308 <= 1;
C309 <= 1;
C310 <= 1;
C311 <= 1;
C312 <= 1;
C313 <= 1;
C314 <= 1;
C315 <= 1;
C316 <= 1;
C317 <= 1;
C318 <= 1;
C319 <= 1;
C320 <= 1;
C321 <= 1;
C322 <= 1;
C323 <= 1;
C324 <= 1;
C325 <= 1;
C326 <= 1;
C327 <= 1;
C328 <= 1;
C329 <= 1;
C330 <= 1;
C331 <= 1;
C332 <= 1;
C333 <= 1;
C334 <= 1;
C335 <= 1;
C336 <= 1;
C337 <= 1;
C338 <= 1;
C339 <= 1;
C340 <= 1;
C341 <= 1;
C342 <= 1;
C343 <= 1;
C344 <= 1;
C345 <= 1;
C346 <= 1;
C347 <= 1;
C348 <= 1;
C349 <= 1;
C350 <= 1;
C351 <= 1;
C352 <= 1;
C353 <= 1;
C354 <= 1;
C355 <= 1;
C356 <= 1;
C357 <= 1;
C358 <= 1;
C359 <= 1;
C360 <= 1;
C361 <= 1;
C362 <= 1;
C363 <= 1;
C364 <= 1;
C365 <= 1;
C366 <= 1;
C367 <= 1;
C368 <= 1;
C369 <= 1;
C370 <= 1;
C371 <= 1;
C372 <= 1;
C373 <= 1;
C374 <= 1;
C375 <= 1;
C376 <= 1;
C377 <= 1;
C378 <= 1;
C379 <= 1;
C380 <= 1;
C381 <= 1;
C382 <= 1;
C383 <= 1;
C384 <= 1;
C385 <= 1;
C386 <= 1;
C387 <= 1;
C388 <= 1;
C389 <= 1;
C390 <= 1;
C391 <= 1;
C392 <= 1;
C393 <= 1;
C394 <= 1;
C395 <= 1;
C396 <= 1;
C397 <= 1;
C398 <= 1;
C399 <= 1;
C400 <= 1;
C401 <= 1;
C402 <= 1;
C403 <= 1;
C404 <= 1;
C405 <= 1;
C406 <= 1;
C407 <= 1;
C408 <= 1;
C409 <= 1;
C410 <= 1;
C411 <= 1;
C412 <= 1;
C413 <= 1;
C414 <= 1;
C415 <= 1;
C416 <= 1;
C417 <= 1;
C418 <= 1;
C419 <= 1;
C420 <= 1;
C421 <= 1;
C422 <= 1;
C423 <= 1;
C424 <= 1;
C425 <= 1;
C426 <= 1;
C427 <= 1;
C428 <= 1;
C429 <= 1;
C430 <= 1;
C431 <= 1;
C432 <= 1;
C433 <= 1;
C434 <= 1;
C435 <= 1;
C436 <= 1;
C437 <= 1;
C438 <= 1;
C439 <= 1;
C440 <= 1;
C441 <= 1;
C442 <= 1;
C443 <= 1;
C444 <= 1;
C445 <= 1;
C446 <= 1;
C447 <= 1;
C448 <= 1;
C449 <= 1;
C450 <= 1;
C466 <= 1;
C467 <= 1;
C468 <= 1;
C469 <= 1;
C470 <= 1;
C471 <= 1;
C472 <= 1;
C473 <= 1;
C474 <= 1;
C475 <= 1;
C476 <= 1;
C477 <= 1;
C478 <= 1;
C479 <= 1;
C480 <= 1;

/* Integer definitions */
int C1,C2,C3,C4,C5,C6,C7,C8,C9,C10,C11,C12,C13,C14,C15,C16,C17,C18,C19,C20,C21,C22,C23,C24,C25,C26,C27,C28,C29,C30,C31,C32,C33,C34,C35,C36,C37,C38,C39,C40,C41,C42,C43,C44,C45,C46,C47,C48,C49,C50,C51,C52,C53,C54,C55,C56,C57,C58,C59,C60,C61,C62,C63,C64,C65,C66,C67,C68,C69,C70,C71,C72,C73,C74,C75,C76,C77,C78,C79,C80,C81,C82,C83,C84,C85,C86,C87,C88,C89,C90,C91,C92,C93,C94,C95,C96,C97,C98,C99,C100,C101,C102,C103,C104,C105,C106,C107,C108,C109,C110,C111,C112,C113,C114,C115,C116,C117,C118,C119,C120,C121,C122,C123,C124,C125,C126,C127,C128,C129,C130,C131,C132,C133,C134,C135,C136,C137,C138,C139,C140,C141,C142,C143,C144,C145,C146,C147,C148,C149,C150,C151,C152,C153,C154,C155,C156,C157,C158,C159,C160,C161,C162,C163,C164,C165,C166,C167,C168,C169,C170,C171,C172,C173,C174,C175,C176,C177,C178,C179,C180,C181,C182,C183,C184,C185,C186,C187,C188,C189,C190,C191,C192,C193,C194,C195,C196,C197,C198,C199,C200,C201,C202,C203,C204,C205,C206,C207,C208,C209,C210,C211,C212,C213,C214,C215,C216,C217,C218,C219,C220,C221,C222,C223,C224,C225,C226,C227,C228,C229,C230,C231,C232,C233,C234,C235,C236,C237,C238,C239,C240,C241,C242,C243,C244,C245,C246,C247,C248,C249,C250,C251,C252,C253,C254,C255,C256,C257,C258,C259,C260,C261,C262,C263,C264,C265,C266,C267,C268,C269,C270,C271,C272,C273,C274,C275,C276,C277,C278,C279,C280,C281,C282,C283,C284,C285,C286,C287,C288,C289,C290,C291,C292,C293,C294,C295,C296,C297,C298,C299,C300,C301,C302,C303,C304,C305,C306,C307,C308,C309,C310,C311,C312,C313,C314,C315,C316,C317,C318,C319,C320,C321,C322,C323,C324,C325,C326,C327,C328,C329,C330,C331,C332,C333,C334,C335,C336,C337,C338,C339,C340,C341,C342,C343,C344,C345,C346,C347,C348,C349,C350,C351,C352,C353,C354,C355,C356,C357,C358,C359,C360,C361,C362,C363,C364,C365,C366,C367,C368,C369,C370,C371,C372,C373,C374,C375,C376,C377,C378,C379,C380,C381,C382,C383,C384,C385,C386,C387,C388,C389,C390,C391,C392,C393,C394,C395,C396,C397,C398,C399,C400,C401,C402,C403,C404,C405,C406,C407,C408,C409,C410,C411,C412,C413,C414,C415,C416,C417,C418,C419,C420,C421,C422,C423,C424,C425,C426,C427,C428,C429,C430,C431,C432,C433,C434,C435,C436,C437,C438,C439,C440,C441,C442,C443,C444,C445,C446,C447,C448,C449,C450,C451,C452,C453,C454,C455,C456,C457,C458,C459,C460,C461,C462,C463,C464,C465,C466,C467,C468,C469,C470,C471,C472,C473,C474,C475,C476,C477,C478,C479,C480;
